p tw 40 98
0 1
0 12
0 29
0 38
0 18
1 8
1 9
2 3
2 15
2 19
2 39
2 20
3 31
4 5
4 11
4 33
4 13
4 26
4 32
4 9
5 35
5 24
6 7
6 14
6 31
7 11
7 19
7 24
7 13
8 9
8 28
8 20
8 27
8 31
8 29
9 26
9 11
9 13
9 20
9 12
9 14
9 27
10 11
10 22
10 34
10 25
11 16
12 24
12 19
12 22
12 36
13 14
13 18
13 25
13 36
14 15
14 25
14 33
14 37
15 32
15 30
15 18
15 22
15 17
15 34
16 17
16 30
16 19
17 19
18 21
18 27
18 26
19 20
19 23
19 26
19 24
19 28
20 29
20 27
21 30
21 27
22 37
22 30
23 30
24 33
24 28
25 26
25 33
26 34
27 33
27 28
27 37
28 35
28 30
28 32
30 37
33 39
36 37
